1
1000
129
266 4
267 5
268 3
269 7
270 6
271 4
272 7
273 1
274 6
275 2
276 3
277 3
278 2
279 5
280 2
281 9
282 5
283 1
284 8
285 5
286 3
287 6
288 6
289 2
290 3
291 2
292 4
293 6
294 1
295 5
296 3
297 2
298 6
299 5
300 5
301 3
302 3
303 7
304 3
305 4
306 3
307 3
308 4
309 2
310 3
311 4
312 3
313 6
314 5
315 7
316 2
317 4
318 2
319 3
320 5
321 6
322 2
323 4
324 5
325 4
326 4
327 5
328 8
329 2
330 2
331 1
332 10
333 5
334 3
335 3
336 4
337 3
338 3
339 5
340 5
342 3
343 7
344 4
345 4
346 4
347 7
348 3
349 8
350 2
351 3
352 3
353 3
354 4
355 5
356 4
357 3
358 5
359 4
360 3
361 1
363 3
364 1
365 1
366 3
367 6
368 5
369 1
370 4
371 5
372 4
373 8
374 2
375 3
376 3
377 2
378 2
379 2
380 6
381 2
382 3
383 5
384 5
385 5
386 2
387 5
388 1
389 5
390 1
391 3
392 2
393 4
394 1
395 2
396 6
